50, 62425
158, 2551
99, 2552
21, 2553
256, 2554
136, 2555
377, 2556
100, 2557
96, 2558
678, 2559
981, 2560
399, 2561
321, 2562
869, 2563
983, 2564
47, 2565
662, 2566
44, 2567
741, 2568
113, 2569
748, 2570
869, 2571
618, 2572
683, 2573
489, 2574
364, 2575
98, 2576
902, 2577
453, 2578
892, 2579
154, 2580
427, 2581
685, 2582
287, 2583
298, 2584
136, 2585
309, 2586
452, 2587
588, 2588
242, 2589
595, 2590
936, 2591
308, 2592
362, 2593
977, 2594
800, 2595
783, 2596
906, 2597
177, 2598
787, 2599
806, 2600
